10	5
0	4	2	3	1	5
1	2	9	8
2	1	10
3	1	7
4	1	11
5	2	4	8
6	1	11
7	1	11
8	1	11
9	1	11
10	1	11
11	0
0	0	0	0	0	0	0
1	4	0	1	2	0	3
2	7	0	2	3	0	4
3	4	1	2	3	4	2
4	10	3	5	4	4	1
5	9	4	0	5	3	1
6	7	4	3	3	0	5
7	5	0	3	4	1	0
8	6	5	5	4	1	2
9	4	0	4	2	1	4
10	7	4	0	1	0	0
11	0	0	0	0	0	0
7	7	11	7	10
